14° run output:
{
    "Function": "ClusterA300.tsp",
    "Problem dimension": [
        144,
        260,
        154,
        139,
        148,
        183,
        24,
        178,
        151,
        4,
        163,
        239,
        29,
        12,
        20,
        276,
        278,
        243,
        255,
        49,
        48,
        142,
        158,
        193,
        100,
        38,
        242,
        128,
        294,
        39,
        136,
        198,
        56,
        214,
        250,
        297,
        291,
        80,
        213,
        221,
        93,
        8,
        203,
        184,
        7,
        216,
        182,
        171,
        65,
        27,
        280,
        266,
        173,
        28,
        208,
        160,
        227,
        169,
        36,
        43,
        212,
        241,
        277,
        199,
        84,
        134,
        141,
        130,
        295,
        25,
        89,
        192,
        258,
        175,
        60,
        283,
        143,
        147,
        286,
        13,
        44,
        289,
        127,
        85,
        133,
        287,
        246,
        132,
        201,
        284,
        2,
        11,
        265,
        268,
        236,
        121,
        71,
        204,
        299,
        126,
        251,
        15,
        123,
        63,
        117,
        14,
        285,
        292,
        104,
        78,
        96,
        55,
        131,
        153,
        98,
        140,
        157,
        189,
        270,
        288,
        240,
        115,
        220,
        53,
        97,
        79,
        263,
        110,
        159,
        57,
        224,
        244,
        35,
        269,
        64,
        237,
        233,
        164,
        45,
        16,
        210,
        5,
        42,
        72,
        83,
        101,
        33,
        200,
        120,
        264,
        166,
        75,
        68,
        10,
        181,
        6,
        279,
        135,
        94,
        30,
        61,
        215,
        162,
        77,
        23,
        217,
        156,
        176,
        103,
        52,
        177,
        62,
        87,
        253,
        234,
        197,
        223,
        32,
        218,
        9,
        282,
        118,
        257,
        73,
        296,
        138,
        179,
        37,
        146,
        207,
        88,
        86,
        259,
        149,
        102,
        186,
        106,
        180,
        74,
        91,
        238,
        31,
        107,
        271,
        161,
        116,
        108,
        152,
        205,
        21,
        274,
        209,
        298,
        211,
        272,
        194,
        245,
        19,
        235,
        22,
        188,
        225,
        262,
        256,
        58,
        3,
        41,
        231,
        187,
        261,
        228,
        172,
        50,
        247,
        76,
        111,
        129,
        222,
        226,
        18,
        229,
        122,
        105,
        92,
        267,
        34,
        0,
        125,
        254,
        69,
        1,
        195,
        248,
        112,
        168,
        114,
        190,
        109,
        46,
        219,
        196,
        273,
        124,
        281,
        165,
        70,
        293,
        113,
        137,
        185,
        90,
        59,
        47,
        155,
        191,
        174,
        119,
        252,
        249,
        17,
        145,
        54,
        66,
        51,
        26,
        150,
        40,
        81,
        82,
        232,
        67,
        202,
        95,
        290,
        99,
        275,
        167,
        230,
        170,
        206
    ],
    "Global Optimum": 0,
    "Algorithm": "Genetic algorithm",
    "Parameters": {
        "population": 30,
        "offspring": 30,
        "mutation probability": 0.0033333333333333335,
        "crossover probability": 0.9
    },
    "Fitness": 365089,
    "Solution": [
        144,
        260,
        154,
        139,
        148,
        183,
        24,
        178,
        151,
        4,
        163,
        239,
        29,
        12,
        20,
        276,
        278,
        243,
        255,
        49,
        48,
        142,
        158,
        193,
        100,
        38,
        242,
        128,
        294,
        39,
        136,
        198,
        56,
        214,
        250,
        297,
        291,
        80,
        213,
        221,
        93,
        8,
        203,
        184,
        7,
        216,
        182,
        171,
        65,
        27,
        280,
        266,
        173,
        28,
        208,
        160,
        227,
        169,
        36,
        43,
        212,
        241,
        277,
        199,
        84,
        134,
        141,
        130,
        295,
        25,
        89,
        192,
        258,
        175,
        60,
        283,
        143,
        147,
        286,
        13,
        44,
        289,
        127,
        85,
        133,
        287,
        246,
        132,
        201,
        284,
        2,
        11,
        265,
        268,
        236,
        121,
        71,
        204,
        299,
        126,
        251,
        15,
        123,
        63,
        117,
        14,
        285,
        292,
        104,
        78,
        96,
        55,
        131,
        153,
        98,
        140,
        157,
        189,
        270,
        288,
        240,
        115,
        220,
        53,
        97,
        79,
        263,
        110,
        159,
        57,
        224,
        244,
        35,
        269,
        64,
        237,
        233,
        164,
        45,
        16,
        210,
        5,
        42,
        72,
        83,
        101,
        33,
        200,
        120,
        264,
        166,
        75,
        68,
        10,
        181,
        6,
        279,
        135,
        94,
        30,
        61,
        215,
        162,
        77,
        23,
        217,
        156,
        176,
        103,
        52,
        177,
        62,
        87,
        253,
        234,
        197,
        223,
        32,
        218,
        9,
        282,
        118,
        257,
        73,
        296,
        138,
        179,
        37,
        146,
        207,
        88,
        86,
        259,
        149,
        102,
        186,
        106,
        180,
        74,
        91,
        238,
        31,
        107,
        271,
        161,
        116,
        108,
        152,
        205,
        21,
        274,
        209,
        298,
        211,
        272,
        194,
        245,
        19,
        235,
        22,
        188,
        225,
        262,
        256,
        58,
        3,
        41,
        231,
        187,
        261,
        228,
        172,
        50,
        247,
        76,
        111,
        129,
        222,
        226,
        18,
        229,
        122,
        105,
        92,
        267,
        34,
        0,
        125,
        254,
        69,
        1,
        195,
        248,
        112,
        168,
        114,
        190,
        109,
        46,
        219,
        196,
        273,
        124,
        281,
        165,
        70,
        293,
        113,
        137,
        185,
        90,
        59,
        47,
        155,
        191,
        174,
        119,
        252,
        249,
        17,
        145,
        54,
        66,
        51,
        26,
        150,
        40,
        81,
        82,
        232,
        67,
        202,
        95,
        290,
        99,
        275,
        167,
        230,
        170,
        206
    ],
    "Nb of functions evaluations": 50010,
    "Computational time in seconds": 158.68766617774963,
    "Stopping criterion in evaluations": 50000
}